time=30;
op_count=4;
izd_count=5;

op_len = [4, 2, 1, 3];
op_in = array2d(1..op_count, 1..izd_count,
   [0, 3, 1, 1, 0,
   0, 0, 0, 0, 1,
   0, 6, 0, 0, 0,
   0, 0, 0, 0, 1
   ]);
   
op_out = array2d(1..op_count, 1..izd_count, [
    1, 0, 0, 0, 0,
    0, 3, 0, 0, 0,
    0, 0, 1, 0, 0,
    0, 0, 0, 1, 0
]);

izd_start = [0, 0, 0, 0, 100];

mach_count = 2;
mach = array2d(1..mach_count, 1..op_count, [
    1, 0, 0, 0,
    0, 1, 1, 1
]);

delivery = array2d(1..time, 1..izd_count, [
    0, 0, 0, 0, 0,
    0, 0, 0, 0, 0,
    0, 0, 0, 0, 0,
    0, 0, 0, 0, 0,
    0, 0, 0, 0, 0,
    0, 0, 0, 0, 0,
    0, 0, 0, 0, 0,
    0, 0, 0, 0, 0,
    0, 0, 0, 0, 0,
    0, 0, 0, 0, 0,
    0, 0, 0, 0, 0,
    0, 0, 0, 0, 0,
    0, 0, 0, 0, 0,
    0, 0, 0, 0, 0,
    0, 0, 0, 0, 0,
    0, 0, 0, 0, 0,
    0, 0, 0, 0, 0,
    0, 0, 0, 0, 0,
    0, 0, 0, 0, 0,
    0, 0, 0, 0, 0,
    0, 0, 0, 0, 0,
    0, 0, 0, 0, 0,
    0, 0, 0, 0, 0,
    0, 0, 0, 0, 0,
    0, 0, 0, 0, 0,
    0, 0, 0, 0, 0,
    0, 0, 0, 0, 0,
    0, 0, 0, 0, 0,
    0, 0, 0, 0, 0,
    1, 0, 0, 0, 0
]);

max_without_rest_duration = [20,10];
max_without_big_rest_duration = [50,60];
rest_time = [1,2];
big_rest_time = [5,10];
